CapLotSizing_PM/src/Instancias/TCLSLT/25i6p2m/NBB08.OUT
 CG ITER, OVMR, OVMRUB =           1   33912.5976562   33912.5976562
 CG ITER, OVMR, OVMRUB =           2   33912.5976562   33912.5976562
 CG ITER, OVMR, OVMRUB =           3   33912.5937500   33912.5976562
 CG ITER, OVMR, OVMRUB =           4   33912.5859375   33912.5976562
 CG ITER, OVMR, OVMRUB =           5   32908.0976562   33912.5976562
 CG ITER, OVMR, OVMRUB =           6   32815.6250000   33912.5976562
 CG ITER, OVMR, OVMRUB =           7   32693.3261719   33912.5976562
 CG ITER, OVMR, OVMRUB =           8   32617.0664062   33912.5976562
 CG ITER, OVMR, OVMRUB =           9   32554.3125000   33912.5976562
 CG ITER, OVMR, OVMRUB =          10   32499.4257812   33912.5976562
 CG ITER, OVMR, OVMRUB =          11   32450.0156250   33912.5976562
 CG ITER, OVMR, OVMRUB =          12   32408.3281250   33912.5976562
 CG ITER, OVMR, OVMRUB =          13   32357.6171875   33912.5976562
 CG ITER, OVMR, OVMRUB =          14   32332.2324219   33912.5976562
 CG ITER, OVMR, OVMRUB =          15   32307.3984375   33912.5976562
 CG ITER, OVMR, OVMRUB =          16   32268.4199219   33912.5976562
 CG ITER, OVMR, OVMRUB =          17   32247.3808594   33912.5976562
 CG ITER, OVMR, OVMRUB =          18   32228.6914062   33912.5976562
 CG ITER, OVMR, OVMRUB =          19   32212.6835938   33912.5976562
 CG ITER, OVMR, OVMRUB =          20   32196.9238281   33912.5976562
 CG ITER, OVMR, OVMRUB =          21   32184.6953125   33912.5976562
 CG ITER, OVMR, OVMRUB =          22   32170.3789062   33912.5976562
 CG ITER, OVMR, OVMRUB =          23   32157.7324219   33531.6679688
 CG ITER, OVMR, OVMRUB =          24   32141.2656250   33531.6679688
 CG ITER, OVMR, OVMRUB =          25   32128.2402344   33531.6679688
 CG ITER, OVMR, OVMRUB =          26   32118.7558594   33531.6679688
 CG ITER, OVMR, OVMRUB =          27   32111.5644531   33531.6679688
 CG ITER, OVMR, OVMRUB =          28   32101.0585938   33531.6679688
 CG ITER, OVMR, OVMRUB =          29   32088.5585938   33531.6679688
 CG ITER, OVMR, OVMRUB =          30   32080.5566406   33531.6679688
 CG ITER, OVMR, OVMRUB =          31   32066.5410156   33531.6679688
 CG ITER, OVMR, OVMRUB =          32   32053.5996094   33531.6679688
 CG ITER, OVMR, OVMRUB =          33   32042.1582031   33531.6679688
 CG ITER, OVMR, OVMRUB =          34   32030.7480469   33531.6679688
 CG ITER, OVMR, OVMRUB =          35   32022.9042969   33531.6679688
 CG ITER, OVMR, OVMRUB =          36   32016.8046875   33381.2500000
 CG ITER, OVMR, OVMRUB =          37   32011.2890625   33381.2500000
 CG ITER, OVMR, OVMRUB =          38   31995.1777344   33381.2500000
 CG ITER, OVMR, OVMRUB =          39   31990.1308594   33381.2500000
 CG ITER, OVMR, OVMRUB =          40   31983.2812500   33381.2500000
 CG ITER, OVMR, OVMRUB =          41   31980.0039062   33381.2500000
 CG ITER, OVMR, OVMRUB =          42   31971.7070312   33381.2500000
 CG ITER, OVMR, OVMRUB =          43   31966.6367188   33381.2500000
 CG ITER, OVMR, OVMRUB =          44   31961.6347656   33299.8085938
 CG ITER, OVMR, OVMRUB =          45   31952.3359375   33299.8085938
 CG ITER, OVMR, OVMRUB =          46   31944.1132812   33299.8085938
 CG ITER, OVMR, OVMRUB =          47   31938.0664062   33299.8085938
 CG ITER, OVMR, OVMRUB =          48   31935.5234375   33299.8085938
 CG ITER, OVMR, OVMRUB =          49   31935.7050781   33299.8085938
 CG ITER, OVMR, OVMRUB =          50   31930.2363281   33299.8085938
 CG ITER, OVMR, OVMRUB =          51   31928.3828125   33279.1953125
 CG ITER, OVMR, OVMRUB =          52   31924.0605469   33012.9375000
 CG ITER, OVMR, OVMRUB =          53   31919.7695312   33012.9375000
 CG ITER, OVMR, OVMRUB =          54   31918.0156250   33012.9375000
 CG ITER, OVMR, OVMRUB =          55   31916.5839844   33012.9375000
 CG ITER, OVMR, OVMRUB =          56   31915.3027344   33012.9375000
 CG ITER, OVMR, OVMRUB =          57   31914.7109375   33012.9375000
 CG ITER, OVMR, OVMRUB =          58   31912.6660156   33012.9375000
 CG ITER, OVMR, OVMRUB =          59   31911.9570312   33012.9375000
 CG ITER, OVMR, OVMRUB =          60   31912.2851562   33012.9375000
 CG ITER, OVMR, OVMRUB =          61   31904.8105469   33012.9375000
 CG ITER, OVMR, OVMRUB =          62   31902.5410156   33012.9375000
 CG ITER, OVMR, OVMRUB =          63   31900.8300781   33012.9375000
 CG ITER, OVMR, OVMRUB =          64   31900.5703125   33012.9375000
 CG ITER, OVMR, OVMRUB =          65   31900.5312500   33012.9375000
 CG ITER, OVMR, OVMRUB =          66   31900.0761719   32883.1679688
 CG ITER, OVMR, OVMRUB =          67   31897.8398438   32883.1679688
 CG ITER, OVMR, OVMRUB =          68   31897.7382812   32883.1679688
 CG ITER, OVMR, OVMRUB =          69   31897.7285156   32883.1679688
 CG ITER, OVMR, OVMRUB =          70   31897.3945312   32883.1679688
 CG ITER, OVMR, OVMRUB =          71   31897.1816406   32883.1679688
 CG ITER, OVMR, OVMRUB =          72   31897.1367188   32883.1679688
 CG ITER, OVMR, OVMRUB =          73   31896.8281250   32883.1679688
 CG ITER, OVMR, OVMRUB =          74   31896.9335938   32883.1679688
 CG ITER, OVMR, OVMRUB =          75   31896.7734375   32662.4453125
 CG ITER, OVMR, OVMRUB =          76   31896.8593750   32161.5039062
 CG ITER, OVMR, OVMRUB =          77   31896.8066406   32161.5039062
 CG ITER, OVMR, OVMRUB =          78   31896.9023438   32100.8222656
 CG ITER, OVMR, OVMRUB =          79   31897.1132812   32100.8222656
 CG ITER, OVMR, OVMRUB =          80   31897.0722656   32100.8222656
 CG ITER, OVMR, OVMRUB =          81   31897.0761719   32100.8222656
 CG ITER, OVMR, OVMRUB =          82   31897.0820312   32100.8222656
 CG ITER, OVMR, OVMRUB =          83   31897.0820312   32100.8222656
OVLB =   31897.0820312 OVLUB =   32100.8222656 TIME =      84.3600006
